solution status: optimal solution found
objective value:                                    0
one.pinholes[1].hole_in_b_y                        -8 	(obj:0)
one.pinholes[1].hole_in_b_z                        -2 	(obj:0)
one.pinholes[1].hole_in_a_y                        -8 	(obj:0)
one.pinholes[1].hole_in_a_z                        -5 	(obj:0)
one.pinholes[0].hole_in_b_y                        -6 	(obj:0)
one.pinholes[0].hole_in_b_z                        -1 	(obj:0)
one.pinholes[3].hole_in_b_y                       -14 	(obj:0)
one.pinholes[3].hole_in_b_z                        -8 	(obj:0)
one.pinholes[3].hole_in_c_y                       -14 	(obj:0)
one.pinholes[3].hole_in_c_z                       -10 	(obj:0)
one.pinholes[0].hole_in_a_y                        -6 	(obj:0)
one.pinholes[0].hole_in_a_z                        -2 	(obj:0)
one.pinholes[3].hole_in_a_y                       -13 	(obj:0)
one.pinholes[3].hole_in_a_z                       -10 	(obj:0)
one.pinholes[2].hole_in_a_y                       -10 	(obj:0)
one.pinholes[2].hole_in_a_z                        -8 	(obj:0)
one.pinholes[0].hole_in_c_y                        -6 	(obj:0)
one.pinholes[0].hole_in_c_z                        -3 	(obj:0)
one.pinholes[2].hole_in_b_y                       -11 	(obj:0)
one.pinholes[2].hole_in_b_z                        -4 	(obj:0)
one.pinholes[1].hole_in_c_y                        -8 	(obj:0)
one.pinholes[1].hole_in_c_z                        -4 	(obj:0)
one.pinholes[2].hole_in_c_y                       -11 	(obj:0)
one.pinholes[2].hole_in_c_z                        -8 	(obj:0)
